32      4       
10      10      10      10      
0       0       0       0       0       6       2       3       4       5       6       7       
2       0       1       1       1       5       8       9       10      11      12      
10      1       7       0       9       5       8       9       10      11      12      
6       3       4       0       2       5       8       9       10      11      12      
2       2       3       4       0       4       8       9       11      12      
9       3       4       2       0       3       8       9       12      
2       9       5       5       0       3       8       11      12      
8       0       3       2       5       5       13      14      15      16      17      
3       5       5       3       0       5       13      14      15      16      17      
5       1       0       3       4       5       13      14      15      16      17      
8       4       4       0       6       4       13      14      15      16      
10      0       5       4       4       3       13      15      16      
5       4       2       3       0       6       18      19      20      21      22      23      
9       0       5       4       3       6       18      19      20      21      23      24      
1       2       3       4       0       5       18      20      21      23      24      
5       5       1       0       4       5       18      19      21      22      23      
10      1       6       0       4       5       18      19      20      22      24      
9       0       5       4       3       3       25      26      31      
10      3       9       3       0       3       25      26      31      
10      4       0       6       7       3       25      26      31      
2       7       0       5       3       3       25      26      31      
9       6       3       0       5       3       25      26      31      
9       0       4       3       4       3       26      30      31      
6       6       0       4       2       3       26      30      31      
6       0       3       5       7       4       27      28      29      30      
8       5       0       6       2       3       27      28      29      
8       0       2       6       4       1       32      
7       2       0       5       3       1       32      
3       7       4       0       6       1       32      
6       0       4       5       2       1       32      
3       0       4       5       2       1       32      
0       0       0       0       0       0       
